GLPSOL--GLPK LP/MIP Solver 5.0
Parameter(s) specified in the command line:
 --lp ../modeles/2_244.lp --log 2_244.log
Reading problem data from '../modeles/2_244.lp'...
497 rows, 980 columns, 3422 non-zeros
488 integer variables, all of which are binary
1485 lines were read
GLPK Integer Optimizer 5.0
497 rows, 980 columns, 3422 non-zeros
488 integer variables, all of which are binary
Preprocessing...
484 constraint coefficient(s) were reduced
497 rows, 978 columns, 3420 non-zeros
488 integer variables, all of which are binary
Scaling...
 A: min|aij| =  2.687e-04  max|aij| =  4.000e+00  ratio =  1.488e+04
GM: min|aij| =  9.054e-02  max|aij| =  1.105e+01  ratio =  1.220e+02
EQ: min|aij| =  8.197e-03  max|aij| =  1.000e+00  ratio =  1.220e+02
2N: min|aij| =  7.812e-03  max|aij| =  1.759e+00  ratio =  2.251e+02
Constructing initial basis...
Size of triangular part is 497
Solving LP relaxation...
GLPK Simplex Optimizer 5.0
497 rows, 978 columns, 3420 non-zeros
      0: obj =   4.000000000e+00 inf =   9.500e+00 (5)
     33: obj =   4.563720055e-01 inf =   0.000e+00 (0)
*   134: obj =  -1.414169964e+00 inf =   2.045e-16 (0)
OPTIMAL LP SOLUTION FOUND
Integer optimization begins...
Long-step dual simplex will be used
+   134: mip =     not found yet >=              -inf        (1; 0)
+   173: >>>>>  -1.414169964e+00 >=  -1.414169964e+00 < 0.1% (40; 0)
+   173: mip =  -1.414169964e+00 >=     tree is empty   0.0% (0; 79)
INTEGER OPTIMAL SOLUTION FOUND
Time used:   0.0 secs
Memory used: 1.5 Mb (1534442 bytes)
